0 4697
3 4691
6 4682
9 4634
16 4608
17 4587
18 4559
23 4554
28 4538
29 4522
30 4500
34 4497
38 4489
45 4485
50 4484
54 4481
56 4471
58 4465
67 4444
74 4432
92 4415
95 4406
100 4371
140 4365
147 4360
153 4353
157 4350
175 4339
211 4332
222 4324
226 4323
239 4313
256 4288
266 4280
294 4259
311 4233
376 4228
399 4219
428 4218
459 4194
467 4189
489 4177
552 4172
553 4169
560 4157
564 4149
568 4148
576 4128
581 4102
677 4101
705 4096
746 4095
759 4087
792 4077
927 4070
936 4069
1038 4067
1147 4061
1177 4060
1235 4058
1829 4056
2939 4054
3349 4047
3975 4029
4200 4028
7646 4027
7779 4024
7820 4021
7911 4014
9548 4007
12609 4005
12822 4003
13678 4002
13736 3997
13963 3994
14813 3986
109984 3981
112409 3980
112838 3978
114085 3976
124020 3973
124118 3972
125224 3965
125841 3961
1074842 3959
1082820 3956
1086753 3954
1087653 3952
1088674 3951
1090479 3950
